\* Layout_Problem *\
Minimize
OBJ: 10560 'n1' + 10560 'n2' + 10560 'n3' + 10560 'n4' + 10560 'n5'
Subject To
_C1: 100 'n1' + 250 'n2' + 450 'n3' + 700 'n4' + 900 'n5' >= 2988
_C2: 100 'n1' + 250 'n2' + 450 'n3' + 700 'n4' + 900 'n5' <= 3652
Bounds
0 <= 'n1' <= 99999
0 <= 'n2' <= 99999
0 <= 'n3' <= 99999
0 <= 'n4' <= 99999
0 <= 'n5' <= 99999
Generals
'n1'
'n2'
'n3'
'n4'
'n5'
End
